1376 1301 1255 1122 1241
1224 1353 1263 1230 1166
1106 1354 1267 1290 1015
1173 1373 1068 1314 1246
1498 1041 1266 1155 1145
1277 1343 1400 1180 1354
1392 1220 1069 1301 1307
1244 1013 1114 1378 1231
